NAME: test58
TYPE: TSP
DIMENSION: 15
EDGE_WEIGHT_TYPE: EUC_2D
NODE_COORD_SECTION
1 63.05877691308418 80.23374418225356
2 17.116812885868015 19.603733514835664
3 62.74624083733603 51.92368099509531
4 11.182425517318439 33.486191103368476
5 35.465982812264215 93.94104810205557
6 40.13400135211103 64.50950121661285
7 23.77931498847552 51.88203823301082
8 98.32145868961672 66.28099401044344
9 6.142562948744146 12.667075740743572
10 88.90990614785534 84.92507990600812
11 63.46718159959741 31.08184781754678
12 96.0484875471837 8.46901148287923
13 58.22107204422529 27.964804968578484
14 71.07485712378006 62.62780089853065
15 85.60439151122274 26.274151787669496
EOF
